p cnf 269 952
1 -2 3 0
-26 -29 -44 0
-50 4 20 0
-36 15 22 0
-36 8 3 0
-23 14 -5 0
-11 -26 49 0
-19 -28 -35 0
-49 -14 -47 0
28 3 -11 0
-8 -44 34 0
41 -6 37 0
6 7 50 0
50 -22 12 0
17 27 47 0
6 -39 -30 0
-35 15 -43 0
46 -50 -5 0
-28 40 33 0
-21 -29 -25 0
18 -6 9 0
-46 41 -20 0
-16 -46 34 0
14 -7 -34 0
-24 44 -4 0
35 -29 30 0
-22 20 30 0
21 3 43 0
-44 -19 -32 0
42 34 24 0
28 36 11 0
42 6 -8 0
-44 10 18 0
-7 -19 -33 0
40 20 25 0
-3 28 41 0
-31 -21 39 0
-31 -3 -36 0
26 -18 -34 0
-30 -31 -11 0
9 -36 31 0
-10 -5 -38 0
-30 -23 35 0
8 -24 -50 0
-27 48 -21 0
-31 -41 30 0
-20 50 34 0
30 17 -50 0
21 -41 29 0
43 -13 -5 0
-2 -3 51 0
2 -3 -51 0
-2 3 -51 0
2 3 51 0
-4 -7 52 0
4 -7 -52 0
-4 7 -52 0
4 7 52 0
8 -9 53 0
-8 -9 -53 0
8 9 -53 0
-8 9 53 0
10 11 54 0
-10 11 -54 0
10 -11 -54 0
-10 -11 54 0
12 -18 55 0
-12 -18 -55 0
12 18 -55 0
-12 18 55 0
20 23 56 0
-20 23 -56 0
20 -23 -56 0
-20 -23 56 0
24 25 57 0
-24 25 -57 0
24 -25 -57 0
-24 -25 57 0
26 -27 58 0
-26 -27 -58 0
26 27 -58 0
-26 27 58 0
-28 -29 59 0
28 -29 -59 0
-28 29 -59 0
28 29 59 0
30 -32 60 0
-30 -32 -60 0
30 32 -60 0
-30 32 60 0
-33 -34 61 0
33 -34 -61 0
-33 34 -61 0
33 34 61 0
39 40 62 0
-39 40 -62 0
39 -40 -62 0
-39 -40 62 0
-42 44 63 0
42 44 -63 0
-42 -44 -63 0
42 -44 63 0
-45 47 64 0
45 47 -64 0
-45 -47 -64 0
45 -47 64 0
50 -51 65 0
-50 -51 -65 0
50 51 -65 0
-50 51 65 0
52 -53 66 0
-52 -53 -66 0
52 53 -66 0
-52 53 66 0
54 -55 67 0
-54 -55 -67 0
54 55 -67 0
-54 55 67 0
56 -57 68 0
-56 -57 -68 0
56 57 -68 0
-56 57 68 0
58 -59 69 0
-58 -59 -69 0
58 59 -69 0
-58 59 69 0
60 -61 70 0
-60 -61 -70 0
60 61 -70 0
-60 61 70 0
62 -63 71 0
-62 -63 -71 0
62 63 -71 0
-62 63 71 0
64 -65 72 0
-64 -65 -72 0
64 65 -72 0
-64 65 72 0
66 -67 73 0
-66 -67 -73 0
66 67 -73 0
-66 67 73 0
68 -69 74 0
-68 -69 -74 0
68 69 -74 0
-68 69 74 0
70 -71 75 0
-70 -71 -75 0
70 71 -75 0
-70 71 75 0
72 -73 76 0
-72 -73 -76 0
72 73 -76 0
-72 73 76 0
74 -75 77 0
-74 -75 -77 0
74 75 -77 0
-74 75 77 0
76 77 0
-76 -77 0
2 -4 78 0
-2 -4 -78 0
2 4 -78 0
-2 4 78 0
-13 16 79 0
13 16 -79 0
-13 -16 -79 0
13 -16 79 0
25 -26 80 0
-25 -26 -80 0
25 26 -80 0
-25 26 80 0
27 -34 81 0
-27 -34 -81 0
27 34 -81 0
-27 34 81 0
-39 -43 82 0
39 -43 -82 0
-39 43 -82 0
39 43 82 0
-44 47 83 0
44 47 -83 0
-44 -47 -83 0
44 -47 83 0
-49 -50 84 0
49 -50 -84 0
-49 50 -84 0
49 50 84 0
78 -79 85 0
-78 -79 -85 0
78 79 -85 0
-78 79 85 0
80 -81 86 0
-80 -81 -86 0
80 81 -86 0
-80 81 86 0
82 -83 87 0
-82 -83 -87 0
82 83 -87 0
-82 83 87 0
84 -85 88 0
-84 -85 -88 0
84 85 -88 0
-84 85 88 0
86 -87 89 0
-86 -87 -89 0
86 87 -89 0
-86 87 89 0
88 89 0
-88 -89 0
1 -2 90 0
-1 -2 -90 0
1 2 -90 0
-1 2 90 0
4 10 91 0
-4 10 -91 0
4 -10 -91 0
-4 -10 91 0
-11 -15 92 0
11 -15 -92 0
-11 15 -92 0
11 15 92 0
16 19 93 0
-16 19 -93 0
16 -19 -93 0
-16 -19 93 0
-22 25 94 0
22 25 -94 0
-22 -25 -94 0
22 -25 94 0
-26 -28 95 0
26 -28 -95 0
-26 28 -95 0
26 28 95 0
35 -38 96 0
-35 -38 -96 0
35 38 -96 0
-35 38 96 0
-39 -42 97 0
39 -42 -97 0
-39 42 -97 0
39 42 97 0
-44 -45 98 0
44 -45 -98 0
-44 45 -98 0
44 45 98 0
46 -47 99 0
-46 -47 -99 0
46 47 -99 0
-46 47 99 0
49 50 100 0
-49 50 -100 0
49 -50 -100 0
-49 -50 100 0
90 -91 101 0
-90 -91 -101 0
90 91 -101 0
-90 91 101 0
92 -93 102 0
-92 -93 -102 0
92 93 -102 0
-92 93 102 0
94 -95 103 0
-94 -95 -103 0
94 95 -103 0
-94 95 103 0
96 -97 104 0
-96 -97 -104 0
96 97 -104 0
-96 97 104 0
98 -99 105 0
-98 -99 -105 0
98 99 -105 0
-98 99 105 0
100 -101 106 0
-100 -101 -106 0
100 101 -106 0
-100 101 106 0
102 -103 107 0
-102 -103 -107 0
102 103 -107 0
-102 103 107 0
104 -105 108 0
-104 -105 -108 0
104 105 -108 0
-104 105 108 0
-106 -107 108 0
106 -107 -108 0
-106 107 -108 0
106 107 108 0
-1 2 109 0
1 2 -109 0
-1 -2 -109 0
1 -2 109 0
-3 -4 110 0
3 -4 -110 0
-3 4 -110 0
3 4 110 0
6 11 111 0
-6 11 -111 0
6 -11 -111 0
-6 -11 111 0
14 -16 112 0
-14 -16 -112 0
14 16 -112 0
-14 16 112 0
-21 22 113 0
21 22 -113 0
-21 -22 -113 0
21 -22 113 0
-23 -25 114 0
23 -25 -114 0
-23 25 -114 0
23 25 114 0
26 29 115 0
-26 29 -115 0
26 -29 -115 0
-26 -29 115 0
30 31 116 0
-30 31 -116 0
30 -31 -116 0
-30 -31 116 0
34 -35 117 0
-34 -35 -117 0
34 35 -117 0
-34 35 117 0
37 -38 118 0
-37 -38 -118 0
37 38 -118 0
-37 38 118 0
40 -41 119 0
-40 -41 -119 0
40 41 -119 0
-40 41 119 0
44 45 120 0
-44 45 -120 0
44 -45 -120 0
-44 -45 120 0
-46 -49 121 0
46 -49 -121 0
-46 49 -121 0
46 49 121 0
108 -109 122 0
-108 -109 -122 0
108 109 -122 0
-108 109 122 0
110 -111 123 0
-110 -111 -123 0
110 111 -123 0
-110 111 123 0
112 -113 124 0
-112 -113 -124 0
112 113 -124 0
-112 113 124 0
114 -115 125 0
-114 -115 -125 0
114 115 -125 0
-114 115 125 0
116 -117 126 0
-116 -117 -126 0
116 117 -126 0
-116 117 126 0
118 -119 127 0
-118 -119 -127 0
118 119 -127 0
-118 119 127 0
120 -121 128 0
-120 -121 -128 0
120 121 -128 0
-120 121 128 0
122 -123 129 0
-122 -123 -129 0
122 123 -129 0
-122 123 129 0
124 -125 130 0
-124 -125 -130 0
124 125 -130 0
-124 125 130 0
126 -127 131 0
-126 -127 -131 0
126 127 -131 0
-126 127 131 0
128 -129 132 0
-128 -129 -132 0
128 129 -132 0
-128 129 132 0
130 -131 133 0
-130 -131 -133 0
130 131 -133 0
-130 131 133 0
132 133 0
-132 -133 0
-2 -5 134 0
2 -5 -134 0
-2 5 -134 0
2 5 134 0
9 -12 135 0
-9 -12 -135 0
9 12 -135 0
-9 12 135 0
-13 14 136 0
13 14 -136 0
-13 -14 -136 0
13 -14 136 0
-17 18 137 0
17 18 -137 0
-17 -18 -137 0
17 -18 137 0
-20 21 138 0
20 21 -138 0
-20 -21 -138 0
20 -21 138 0
-23 24 139 0
23 24 -139 0
-23 -24 -139 0
23 -24 139 0
25 27 140 0
-25 27 -140 0
25 -27 -140 0
-25 -27 140 0
-29 31 141 0
29 31 -141 0
-29 -31 -141 0
29 -31 141 0
-32 36 142 0
32 36 -142 0
-32 -36 -142 0
32 -36 142 0
-37 -38 143 0
37 -38 -143 0
-37 38 -143 0
37 38 143 0
40 -41 144 0
-40 -41 -144 0
40 41 -144 0
-40 41 144 0
42 -43 145 0
-42 -43 -145 0
42 43 -145 0
-42 43 145 0
-46 -50 146 0
46 -50 -146 0
-46 50 -146 0
46 50 146 0
134 -135 147 0
-134 -135 -147 0
134 135 -147 0
-134 135 147 0
136 -137 148 0
-136 -137 -148 0
136 137 -148 0
-136 137 148 0
138 -139 149 0
-138 -139 -149 0
138 139 -149 0
-138 139 149 0
140 -141 150 0
-140 -141 -150 0
140 141 -150 0
-140 141 150 0
142 -143 151 0
-142 -143 -151 0
142 143 -151 0
-142 143 151 0
144 -145 152 0
-144 -145 -152 0
144 145 -152 0
-144 145 152 0
146 -147 153 0
-146 -147 -153 0
146 147 -153 0
-146 147 153 0
148 -149 154 0
-148 -149 -154 0
148 149 -154 0
-148 149 154 0
150 -151 155 0
-150 -151 -155 0
150 151 -155 0
-150 151 155 0
152 -153 156 0
-152 -153 -156 0
152 153 -156 0
-152 153 156 0
154 -155 157 0
-154 -155 -157 0
154 155 -157 0
-154 155 157 0
156 157 0
-156 -157 0
3 -5 158 0
-3 -5 -158 0
3 5 -158 0
-3 5 158 0
6 -7 159 0
-6 -7 -159 0
6 7 -159 0
-6 7 159 0
10 -11 160 0
-10 -11 -160 0
10 11 -160 0
-10 11 160 0
-12 14 161 0
12 14 -161 0
-12 -14 -161 0
12 -14 161 0
-15 -16 162 0
15 -16 -162 0
-15 16 -162 0
15 16 162 0
21 -23 163 0
-21 -23 -163 0
21 23 -163 0
-21 23 163 0
-28 -29 164 0
28 -29 -164 0
-28 29 -164 0
28 29 164 0
30 31 165 0
-30 31 -165 0
30 -31 -165 0
-30 -31 165 0
33 -36 166 0
-33 -36 -166 0
33 36 -166 0
-33 36 166 0
38 45 167 0
-38 45 -167 0
38 -45 -167 0
-38 -45 167 0
157 -158 168 0
-157 -158 -168 0
157 158 -168 0
-157 158 168 0
159 -160 169 0
-159 -160 -169 0
159 160 -169 0
-159 160 169 0
161 -162 170 0
-161 -162 -170 0
161 162 -170 0
-161 162 170 0
163 -164 171 0
-163 -164 -171 0
163 164 -171 0
-163 164 171 0
165 -166 172 0
-165 -166 -172 0
165 166 -172 0
-165 166 172 0
167 -168 173 0
-167 -168 -173 0
167 168 -173 0
-167 168 173 0
169 -170 174 0
-169 -170 -174 0
169 170 -174 0
-169 170 174 0
171 -172 175 0
-171 -172 -175 0
171 172 -175 0
-171 172 175 0
-173 -174 175 0
173 -174 -175 0
-173 174 -175 0
173 174 175 0
1 2 176 0
-1 2 -176 0
1 -2 -176 0
-1 -2 176 0
8 9 177 0
-8 9 -177 0
8 -9 -177 0
-8 -9 177 0
-10 14 178 0
10 14 -178 0
-10 -14 -178 0
10 -14 178 0
15 16 179 0
-15 16 -179 0
15 -16 -179 0
-15 -16 179 0
-17 18 180 0
17 18 -180 0
-17 -18 -180 0
17 -18 180 0
19 21 181 0
-19 21 -181 0
19 -21 -181 0
-19 -21 181 0
-22 -23 182 0
22 -23 -182 0
-22 23 -182 0
22 23 182 0
24 25 183 0
-24 25 -183 0
24 -25 -183 0
-24 -25 183 0
-31 32 184 0
31 32 -184 0
-31 -32 -184 0
31 -32 184 0
-33 -34 185 0
33 -34 -185 0
-33 34 -185 0
33 34 185 0
-35 36 186 0
35 36 -186 0
-35 -36 -186 0
35 -36 186 0
-37 40 187 0
37 40 -187 0
-37 -40 -187 0
37 -40 187 0
42 44 188 0
-42 44 -188 0
42 -44 -188 0
-42 -44 188 0
-48 -49 189 0
48 -49 -189 0
-48 49 -189 0
48 49 189 0
176 -177 190 0
-176 -177 -190 0
176 177 -190 0
-176 177 190 0
178 -179 191 0
-178 -179 -191 0
178 179 -191 0
-178 179 191 0
180 -181 192 0
-180 -181 -192 0
180 181 -192 0
-180 181 192 0
182 -183 193 0
-182 -183 -193 0
182 183 -193 0
-182 183 193 0
184 -185 194 0
-184 -185 -194 0
184 185 -194 0
-184 185 194 0
186 -187 195 0
-186 -187 -195 0
186 187 -195 0
-186 187 195 0
188 -189 196 0
-188 -189 -196 0
188 189 -196 0
-188 189 196 0
190 -191 197 0
-190 -191 -197 0
190 191 -197 0
-190 191 197 0
192 -193 198 0
-192 -193 -198 0
192 193 -198 0
-192 193 198 0
194 -195 199 0
-194 -195 -199 0
194 195 -199 0
-194 195 199 0
196 -197 200 0
-196 -197 -200 0
196 197 -200 0
-196 197 200 0
198 -199 201 0
-198 -199 -201 0
198 199 -201 0
-198 199 201 0
200 201 0
-200 -201 0
1 2 202 0
-1 2 -202 0
1 -2 -202 0
-1 -2 202 0
-3 -4 203 0
3 -4 -203 0
-3 4 -203 0
3 4 203 0
5 7 204 0
-5 7 -204 0
5 -7 -204 0
-5 -7 204 0
9 -10 205 0
-9 -10 -205 0
9 10 -205 0
-9 10 205 0
11 -13 206 0
-11 -13 -206 0
11 13 -206 0
-11 13 206 0
-14 15 207 0
14 15 -207 0
-14 -15 -207 0
14 -15 207 0
-17 -23 208 0
17 -23 -208 0
-17 23 -208 0
17 23 208 0
-25 -28 209 0
25 -28 -209 0
-25 28 -209 0
25 28 209 0
-30 -31 210 0
30 -31 -210 0
-30 31 -210 0
30 31 210 0
32 -33 211 0
-32 -33 -211 0
32 33 -211 0
-32 33 211 0
-36 -38 212 0
36 -38 -212 0
-36 38 -212 0
36 38 212 0
-39 40 213 0
39 40 -213 0
-39 -40 -213 0
39 -40 213 0
44 -48 214 0
-44 -48 -214 0
44 48 -214 0
-44 48 214 0
201 -202 215 0
-201 -202 -215 0
201 202 -215 0
-201 202 215 0
203 -204 216 0
-203 -204 -216 0
203 204 -216 0
-203 204 216 0
205 -206 217 0
-205 -206 -217 0
205 206 -217 0
-205 206 217 0
207 -208 218 0
-207 -208 -218 0
207 208 -218 0
-207 208 218 0
209 -210 219 0
-209 -210 -219 0
209 210 -219 0
-209 210 219 0
211 -212 220 0
-211 -212 -220 0
211 212 -220 0
-211 212 220 0
213 -214 221 0
-213 -214 -221 0
213 214 -221 0
-213 214 221 0
215 -216 222 0
-215 -216 -222 0
215 216 -222 0
-215 216 222 0
217 -218 223 0
-217 -218 -223 0
217 218 -223 0
-217 218 223 0
219 -220 224 0
-219 -220 -224 0
219 220 -224 0
-219 220 224 0
221 -222 225 0
-221 -222 -225 0
221 222 -225 0
-221 222 225 0
223 -224 226 0
-223 -224 -226 0
223 224 -226 0
-223 224 226 0
225 226 0
-225 -226 0
-2 -6 227 0
2 -6 -227 0
-2 6 -227 0
2 6 227 0
7 -10 228 0
-7 -10 -228 0
7 10 -228 0
-7 10 228 0
-11 14 229 0
11 14 -229 0
-11 -14 -229 0
11 -14 229 0
17 -18 230 0
-17 -18 -230 0
17 18 -230 0
-17 18 230 0
19 -20 231 0
-19 -20 -231 0
19 20 -231 0
-19 20 231 0
21 31 232 0
-21 31 -232 0
21 -31 -232 0
-21 -31 232 0
-32 34 233 0
32 34 -233 0
-32 -34 -233 0
32 -34 233 0
-35 38 234 0
35 38 -234 0
-35 -38 -234 0
35 -38 234 0
39 40 235 0
-39 40 -235 0
39 -40 -235 0
-39 -40 235 0
42 43 236 0
-42 43 -236 0
42 -43 -236 0
-42 -43 236 0
-44 -45 237 0
44 -45 -237 0
-44 45 -237 0
44 45 237 0
46 49 238 0
-46 49 -238 0
46 -49 -238 0
-46 -49 238 0
226 -227 239 0
-226 -227 -239 0
226 227 -239 0
-226 227 239 0
228 -229 240 0
-228 -229 -240 0
228 229 -240 0
-228 229 240 0
230 -231 241 0
-230 -231 -241 0
230 231 -241 0
-230 231 241 0
232 -233 242 0
-232 -233 -242 0
232 233 -242 0
-232 233 242 0
234 -235 243 0
-234 -235 -243 0
234 235 -243 0
-234 235 243 0
236 -237 244 0
-236 -237 -244 0
236 237 -244 0
-236 237 244 0
238 -239 245 0
-238 -239 -245 0
238 239 -245 0
-238 239 245 0
240 -241 246 0
-240 -241 -246 0
240 241 -246 0
-240 241 246 0
242 -243 247 0
-242 -243 -247 0
242 243 -247 0
-242 243 247 0
244 -245 248 0
-244 -245 -248 0
244 245 -248 0
-244 245 248 0
246 -247 249 0
-246 -247 -249 0
246 247 -249 0
-246 247 249 0
248 249 0
-248 -249 0
-1 -3 250 0
1 -3 -250 0
-1 3 -250 0
1 3 250 0
7 -10 251 0
-7 -10 -251 0
7 10 -251 0
-7 10 251 0
11 12 252 0
-11 12 -252 0
11 -12 -252 0
-11 -12 252 0
-13 14 253 0
13 14 -253 0
-13 -14 -253 0
13 -14 253 0
-16 21 254 0
16 21 -254 0
-16 -21 -254 0
16 -21 254 0
22 23 255 0
-22 23 -255 0
22 -23 -255 0
-22 -23 255 0
-24 -26 256 0
24 -26 -256 0
-24 26 -256 0
24 26 256 0
-27 28 257 0
27 28 -257 0
-27 -28 -257 0
27 -28 257 0
29 -34 258 0
-29 -34 -258 0
29 34 -258 0
-29 34 258 0
35 -37 259 0
-35 -37 -259 0
35 37 -259 0
-35 37 259 0
38 42 260 0
-38 42 -260 0
38 -42 -260 0
-38 -42 260 0
249 -250 261 0
-249 -250 -261 0
249 250 -261 0
-249 250 261 0
251 -252 262 0
-251 -252 -262 0
251 252 -262 0
-251 252 262 0
253 -254 263 0
-253 -254 -263 0
253 254 -263 0
-253 254 263 0
255 -256 264 0
-255 -256 -264 0
255 256 -264 0
-255 256 264 0
257 -258 265 0
-257 -258 -265 0
257 258 -265 0
-257 258 265 0
259 -260 266 0
-259 -260 -266 0
259 260 -266 0
-259 260 266 0
261 -262 267 0
-261 -262 -267 0
261 262 -267 0
-261 262 267 0
263 -264 268 0
-263 -264 -268 0
263 264 -268 0
-263 264 268 0
265 -266 269 0
-265 -266 -269 0
265 266 -269 0
-265 266 269 0
-267 -268 269 0
267 -268 -269 0
-267 268 -269 0
267 268 269 0
